c FILE /home/rafael/Documents/HappySet/MIHS/inputs/happygen/output/graph_scale_free_k4_p0.1_v100_20241127_083820.txt
c SOURCE This is a scale-free graph formed for the happy graph colouring problem.
c DESCRIPTION It was generated using the problem generator of Rhyd Lewis
c
c GRAPH STATS
c Seed                             = -1874503342
c Number of Nodes                  = 100
c Number of colours k              = 4
c Number of pre-assignments        = 10
c Number of links per new node     = 5
c Density                          = 0.0979798
c 
c The degrees of nodes 1 to 100, respectively, are as follows 
c [39, 35, 27, 26, 25, 24, 21, 20, 20, 20, 19, 18, 16, 16, 15, 14, 14, 14, 14, 13, 13, 13, 13, 12, 12, 11, 
c  11, 11, 11, 10, 10, 10, 9, 9, 9, 9, 9, 9, 9, 9, 8, 8, 8, 8, 8, 8, 8, 7, 7, 7, 7, 
c  7, 7, 7, 7, 6, 6, 6, 6, 6, 6, 6, 6, 6, 6, 6, 6, 6, 6, 5, 5, 5, 5, 5, 5, 5, 
c  5, 5, 5, 5, 5, 5, 5, 5, 5, 5, 5, 5, 5, 5, 5, 5, 5, 5, 5, 5, 5, 5, 5, 5] 
c  
p edge 100 485 4
e 1 2
e 1 3
e 1 4
e 1 5
e 1 6
e 1 7
e 1 8
e 1 9
e 1 10
e 1 11
e 1 12
e 1 13
e 1 16
e 1 17
e 1 18
e 1 20
e 1 21
e 1 23
e 1 26
e 1 27
e 1 29
e 1 31
e 1 34
e 1 35
e 1 39
e 1 40
e 1 41
e 1 44
e 1 54
e 1 56
e 1 60
e 1 65
e 1 71
e 1 74
e 1 79
e 1 86
e 1 89
e 1 91
e 1 100
e 2 3
e 2 4
e 2 5
e 2 6
e 2 7
e 2 8
e 2 9
e 2 10
e 2 12
e 2 14
e 2 17
e 2 18
e 2 22
e 2 28
e 2 33
e 2 35
e 2 37
e 2 38
e 2 42
e 2 49
e 2 51
e 2 52
e 2 54
e 2 56
e 2 57
e 2 59
e 2 69
e 2 70
e 2 71
e 2 76
e 2 83
e 2 87
e 2 90
e 2 97
e 3 4
e 3 8
e 3 9
e 3 10
e 3 11
e 3 13
e 3 19
e 3 20
e 3 26
e 3 27
e 3 28
e 3 40
e 3 42
e 3 44
e 3 45
e 3 46
e 3 51
e 3 55
e 3 58
e 3 62
e 3 63
e 3 72
e 3 75
e 3 82
e 3 87
e 4 6
e 4 7
e 4 8
e 4 9
e 4 10
e 4 11
e 4 12
e 4 13
e 4 14
e 4 23
e 4 33
e 4 35
e 4 37
e 4 46
e 4 53
e 4 58
e 4 65
e 4 81
e 4 83
e 4 84
e 4 89
e 4 93
e 4 94
e 5 6
e 5 8
e 5 11
e 5 19
e 5 20
e 5 21
e 5 24
e 5 29
e 5 32
e 5 34
e 5 38
e 5 43
e 5 45
e 5 46
e 5 47
e 5 48
e 5 57
e 5 62
e 5 66
e 5 84
e 5 95
e 5 98
e 5 99
e 6 8
e 6 9
e 6 13
e 6 14
e 6 15
e 6 17
e 6 19
e 6 24
e 6 26
e 6 27
e 6 29
e 6 33
e 6 41
e 6 42
e 6 56
e 6 63
e 6 64
e 6 77
e 6 89
e 6 91
e 7 10
e 7 11
e 7 15
e 7 17
e 7 24
e 7 26
e 7 28
e 7 34
e 7 50
e 7 56
e 7 57
e 7 63
e 7 68
e 7 72
e 7 75
e 7 86
e 7 91
e 7 96
e 8 9
e 8 10
e 8 11
e 8 16
e 8 22
e 8 27
e 8 30
e 8 31
e 8 33
e 8 38
e 8 56
e 8 63
e 8 68
e 8 74
e 9 11
e 9 15
e 9 21
e 9 34
e 9 36
e 9 41
e 9 44
e 9 60
e 9 68
e 9 74
e 9 82
e 9 88
e 9 89
e 9 99
e 10 16
e 10 19
e 10 24
e 10 26
e 10 33
e 10 40
e 10 44
e 10 48
e 10 49
e 10 57
e 10 58
e 10 63
e 10 72
e 10 99
e 11 12
e 11 13
e 11 15
e 11 20
e 11 23
e 11 25
e 11 50
e 11 53
e 11 60
e 11 65
e 11 73
e 11 85
e 12 18
e 12 26
e 12 30
e 12 32
e 12 43
e 12 52
e 12 60
e 12 64
e 12 67
e 12 69
e 12 70
e 12 81
e 12 95
e 12 96
e 13 15
e 13 16
e 13 24
e 13 29
e 13 42
e 13 46
e 13 47
e 13 71
e 13 74
e 13 99
e 13 100
e 14 20
e 14 22
e 14 23
e 14 26
e 14 28
e 14 35
e 14 36
e 14 37
e 14 38
e 14 45
e 14 48
e 14 59
e 14 77
e 15 16
e 15 20
e 15 30
e 15 37
e 15 41
e 15 42
e 15 43
e 15 61
e 15 79
e 15 94
e 16 17
e 16 21
e 16 30
e 16 32
e 16 35
e 16 41
e 16 78
e 16 84
e 16 100
e 17 21
e 17 23
e 17 43
e 17 45
e 17 55
e 17 58
e 17 61
e 17 70
e 17 78
e 18 41
e 18 42
e 18 44
e 18 49
e 18 54
e 18 59
e 18 61
e 18 67
e 18 76
e 18 95
e 18 96
e 19 22
e 19 24
e 19 25
e 19 39
e 19 47
e 19 55
e 19 69
e 19 78
e 19 91
e 19 99
e 20 31
e 20 49
e 20 71
e 20 72
e 20 79
e 20 81
e 20 92
e 21 27
e 21 31
e 21 32
e 21 48
e 21 59
e 21 70
e 21 71
e 21 85
e 22 25
e 22 28
e 22 32
e 22 33
e 22 59
e 22 70
e 22 72
e 22 87
e 22 92
e 23 25
e 23 46
e 23 73
e 23 82
e 23 86
e 23 92
e 23 95
e 23 98
e 24 37
e 24 43
e 24 67
e 24 81
e 24 85
e 24 97
e 25 47
e 25 49
e 25 61
e 25 65
e 25 77
e 25 80
e 25 86
e 25 89
e 26 30
e 26 50
e 26 51
e 26 57
e 27 55
e 27 75
e 27 76
e 27 82
e 27 84
e 27 91
e 28 40
e 28 64
e 28 67
e 28 80
e 28 84
e 28 95
e 29 31
e 29 52
e 29 66
e 29 86
e 29 88
e 29 90
e 29 94
e 30 48
e 30 49
e 30 66
e 30 73
e 30 87
e 31 36
e 31 43
e 31 45
e 31 76
e 31 96
e 32 36
e 32 64
e 32 68
e 32 69
e 32 90
e 33 39
e 33 58
e 33 80
e 34 44
e 34 50
e 34 51
e 34 73
e 34 92
e 35 60
e 35 73
e 35 75
e 35 97
e 36 45
e 36 54
e 36 61
e 36 82
e 36 88
e 37 39
e 37 40
e 37 66
e 37 98
e 38 46
e 38 67
e 38 77
e 38 79
e 38 93
e 39 65
e 39 87
e 39 92
e 39 97
e 39 100
e 40 83
e 40 88
e 40 90
e 40 94
e 41 52
e 41 62
e 42 47
e 42 68
e 43 52
e 43 81
e 44 77
e 44 85
e 45 51
e 45 90
e 46 50
e 46 64
e 47 62
e 47 66
e 47 75
e 48 54
e 48 65
e 49 74
e 50 79
e 50 93
e 51 76
e 51 98
e 52 78
e 52 83
e 53 56
e 53 58
e 53 66
e 53 83
e 53 85
e 54 55
e 54 94
e 55 97
e 55 98
e 57 69
e 59 78
e 60 88
e 61 62
e 62 96
e 63 93
e 64 80
e 67 93
e 68 80
e 69 100
n 1 1
n 17 1
n 20 1
n 32 3
n 38 2
n 47 4
n 49 1
n 63 3
n 69 3
n 88 4
